WARNING: for repeatability, setting FPU to use double precision
============================[ Problem Statistics ]=============================
|                                                                             |
|  Number of variables:          2630                                         |
|  Number of clauses:           64445                                         |
|  Parse time:                   0.01 s                                       |
|                                                                             |
c ============================[ Search Statistics ]==============================
c | Conflicts |          ORIGINAL         |          LEARNT          | Progress |
c |           |    Vars  Clauses Literals |    Limit  Clauses Lit/Cl |          |
c ===============================================================================
c Switched to VSIDS.
c Switched to LRB.
c Switched to VSIDS.
c Switched to LRB.
c Switched to VSIDS.
c Switched to LRB.
c Switched to VSIDS.
c Switched to LRB.
c Switched to VSIDS.
c Switched to LRB.
c Switched to VSIDS.
c Switched to LRB.
c Switched to VSIDS.
c Switched to LRB.
c Switched to VSIDS.
c Switched to LRB.
c Switched to VSIDS.
c Switched to LRB.
c Switched to VSIDS.
c Switched to LRB.
c Switched to VSIDS.
c Switched to LRB.
c Switched to VSIDS.
c Switched to LRB.
c Switched to VSIDS.
c Switched to LRB.
c Switched to VSIDS.
c ===============================================================================
restarts                  : 50246
conflicts                 : 13252119       (3739 /sec)
decisions                 : 38390334       (0.00 % random) (10833 /sec)
propagations              : 3853013065     (1087224 /sec)
conflict literals         : 2323561048     (25.37 % deleted)

conflicts w/ DIP found    : 4434410        (33.46 % of conflicts)
conflicts w/ dangerous DIP: 0              (0.00 % of conflicts)
conflicts w/ DIP-learning : 108233         (0.82 % of conflicts)
decisions on ext vars     : 3008120        (7.84 % of decisions)
total ext vars            : 3656        
tried delete ext vars     : 2           
deleted ext vars          : 2           
max ext vars              : 3654        

Memory used               : 497.00 MB
CPU time                  : 3543.9 s
DIP computation time      : 84.3455 s (2.38 % of total time)
ER_sel time               : 20.6934 s
ER_add time               : 0.016606 s
ER_delC time              : 0 s
ER_delV time              : 6.8e-05 s
ER_sub time               : 24.2993 s
ER_stat time              : 0 s

INDETERMINATE
